# Solution for model micodag
# Objective value = 2.1961906206330454e+01
s_0_1 0
s_1_0 0
s_1_2 0
s_2_1 0
s_1_3 0
s_3_1 0.42243074901655
s_2_3 0
s_3_2 4.7002277232461331e-01
s_3_4 0
s_4_3 0
s_3_5 0
s_5_3 0
s_3_6 0
s_6_3 2.7121685872434931e-01
s_3_7 0
s_7_3 0
s_3_8 0
s_8_3 4.0560341726816551e-01
s_3_9 0
s_9_3 4.6032642664173196e-01
s_4_5 0
s_5_4 0
s_4_6 0
s_6_4 1.2734778895278165e-01
s_4_7 0
s_7_4 0
s_4_8 0
s_8_4 3.8416104672877793e-01
s_5_6 0
s_6_5 3.0087318343068823e+00
s_5_13 0
s_13_5 3.0087318343068823e+00
s_7_8 0
s_8_7 2.7820866287076162e-01
s_8_12 0
s_12_8 0.611035536797309
s_10_11 0
s_11_10 3.5292487834860431e-01
s_11_12 0
s_12_11 0
s_11_14 0
s_14_11 0
s_11_16 0
s_16_11 0
s_11_17 0
s_17_11 2.2155140894621539e-01
s_12_14 0
s_14_12 0
s_12_16 0
s_16_12 0
s_12_17 0
s_17_12 4.7879488080161003e-01
s_14_16 0
s_16_14 0
s_14_17 0
s_17_14 4.0328291591079779e-01
s_15_16 0
s_16_15 5.9394436353171143e-01
s_16_17 0
s_17_16 4.5518232090005650e-01
s_0_0 7.0521285399476907e-01
s_1_1 1.9682759962709213e+00
s_2_2 1.0250040528545143e+00
s_3_3 6.7495551939636211e-01
s_4_4 8.6645180772643338e-01
s_5_5 3.0087318343068823e+00
s_6_6 0.612821943120641
s_7_7 6.8570194844632848e-01
s_8_8 6.3108947631954715e-01
s_9_9 7.6716997637573137e-01
s_10_10 9.3289001027196417e-01
s_11_11 7.0269275326878944e-01
s_12_12 1.0422918230906457e+00
s_13_13 9.8082816564860353e-01
s_14_14 2.0904432875652246e+00
s_15_15 7.1525296324904764e-01
s_16_16 9.1404439694254735e-01
s_17_17 6.4865850048731977e-01
Gamma_0_0 8.3976952433079477e-01
Gamma_0_1 0
Gamma_0_2 0
Gamma_0_3 0
Gamma_0_4 0
Gamma_0_5 0
Gamma_0_6 0
Gamma_0_7 0
Gamma_0_8 0
Gamma_0_9 0
Gamma_0_10 0
Gamma_0_11 0
Gamma_0_12 0
Gamma_0_13 0
Gamma_0_14 0
Gamma_0_15 0
Gamma_0_16 0
Gamma_0_17 0
Gamma_1_0 0
Gamma_1_1 1.4029525994383849e+00
Gamma_1_2 0
Gamma_1_3 0
Gamma_1_4 0
Gamma_1_5 0
Gamma_1_6 0
Gamma_1_7 0
Gamma_1_8 0
Gamma_1_9 0
Gamma_1_10 0
Gamma_1_11 0
Gamma_1_12 0
Gamma_1_13 0
Gamma_1_14 0
Gamma_1_15 0
Gamma_1_16 0
Gamma_1_17 0
Gamma_2_0 0
Gamma_2_1 0
Gamma_2_2 1.0124248381260281e+00
Gamma_2_3 0
Gamma_2_4 0
Gamma_2_5 0
Gamma_2_6 0
Gamma_2_7 0
Gamma_2_8 0
Gamma_2_9 0
Gamma_2_10 0
Gamma_2_11 0
Gamma_2_12 0
Gamma_2_13 0
Gamma_2_14 0
Gamma_2_15 0
Gamma_2_16 0
Gamma_2_17 0
Gamma_3_0 0
Gamma_3_1 -6.4994672782971219e-01
Gamma_3_2 0.685582068263613
Gamma_3_3 8.2155676577845960e-01
Gamma_3_4 0
Gamma_3_5 0
Gamma_3_6 0
Gamma_3_7 0
Gamma_3_8 0
Gamma_3_9 0
Gamma_3_10 0
Gamma_3_11 0
Gamma_3_12 0
Gamma_3_13 0
Gamma_3_14 0
Gamma_3_15 0
Gamma_3_16 0
Gamma_3_17 0
Gamma_4_0 0
Gamma_4_1 0
Gamma_4_2 0
Gamma_4_3 0
Gamma_4_4 9.3083393133600012e-01
Gamma_4_5 0
Gamma_4_6 0
Gamma_4_7 0
Gamma_4_8 0
Gamma_4_9 0
Gamma_4_10 0
Gamma_4_11 0
Gamma_4_12 0
Gamma_4_13 0
Gamma_4_14 0
Gamma_4_15 0
Gamma_4_16 0
Gamma_4_17 0
Gamma_5_0 0
Gamma_5_1 0
Gamma_5_2 0
Gamma_5_3 0
Gamma_5_4 0
Gamma_5_5 0.779463678262445
Gamma_5_6 0
Gamma_5_7 0
Gamma_5_8 0
Gamma_5_9 0
Gamma_5_10 0
Gamma_5_11 0
Gamma_5_12 0
Gamma_5_13 0
Gamma_5_14 0
Gamma_5_15 0
Gamma_5_16 0
Gamma_5_17 0
Gamma_6_0 0
Gamma_6_1 0
Gamma_6_2 0
Gamma_6_3 0.520784848785321
Gamma_6_4 3.5685821967944392e-01
Gamma_6_5 -5.1020481903715253e-01
Gamma_6_6 7.8282944701936275e-01
Gamma_6_7 0
Gamma_6_8 0
Gamma_6_9 0
Gamma_6_10 0
Gamma_6_11 0
Gamma_6_12 0
Gamma_6_13 0
Gamma_6_14 0
Gamma_6_15 0
Gamma_6_16 0
Gamma_6_17 0
Gamma_7_0 0
Gamma_7_1 0
Gamma_7_2 0
Gamma_7_3 0
Gamma_7_4 0
Gamma_7_5 0
Gamma_7_6 0
Gamma_7_7 8.2807122184406867e-01
Gamma_7_8 0
Gamma_7_9 0
Gamma_7_10 0
Gamma_7_11 0
Gamma_7_12 0
Gamma_7_13 0
Gamma_7_14 0
Gamma_7_15 0
Gamma_7_16 0
Gamma_7_17 0
Gamma_8_0 0
Gamma_8_1 0
Gamma_8_2 0
Gamma_8_3 6.3687001599083459e-01
Gamma_8_4 -6.1980726579218037e-01
Gamma_8_5 0
Gamma_8_6 0
Gamma_8_7 -5.2745489178768823e-01
Gamma_8_8 0.794411402435506
Gamma_8_9 0
Gamma_8_10 0
Gamma_8_11 0
Gamma_8_12 0
Gamma_8_13 0
Gamma_8_14 0
Gamma_8_15 0
Gamma_8_16 0
Gamma_8_17 0
Gamma_9_0 0
Gamma_9_1 0
Gamma_9_2 0
Gamma_9_3 6.7847360054885875e-01
Gamma_9_4 0
Gamma_9_5 0
Gamma_9_6 0
Gamma_9_7 0
Gamma_9_8 0
Gamma_9_9 8.7588239871328155e-01
Gamma_9_10 0
Gamma_9_11 0
Gamma_9_12 0
Gamma_9_13 0
Gamma_9_14 0
Gamma_9_15 0
Gamma_9_16 0
Gamma_9_17 0
Gamma_10_0 0
Gamma_10_1 0
Gamma_10_2 0
Gamma_10_3 0
Gamma_10_4 0
Gamma_10_5 0
Gamma_10_6 0
Gamma_10_7 0
Gamma_10_8 0
Gamma_10_9 0
Gamma_10_10 9.6586231434504377e-01
Gamma_10_11 0
Gamma_10_12 0
Gamma_10_13 0
Gamma_10_14 0
Gamma_10_15 0
Gamma_10_16 0
Gamma_10_17 0
Gamma_11_0 0
Gamma_11_1 0
Gamma_11_2 0
Gamma_11_3 0
Gamma_11_4 0
Gamma_11_5 0
Gamma_11_6 0
Gamma_11_7 0
Gamma_11_8 0
Gamma_11_9 0
Gamma_11_10 -5.9407480871402440e-01
Gamma_11_11 8.3826770978535814e-01
Gamma_11_12 0
Gamma_11_13 0
Gamma_11_14 0
Gamma_11_15 0
Gamma_11_16 0
Gamma_11_17 0
Gamma_12_0 0
Gamma_12_1 0
Gamma_12_2 0
Gamma_12_3 0
Gamma_12_4 0
Gamma_12_5 0
Gamma_12_6 0
Gamma_12_7 0
Gamma_12_8 -7.8168762098251821e-01
Gamma_12_9 0
Gamma_12_10 0
Gamma_12_11 0
Gamma_12_12 1.0209269430721504e+00
Gamma_12_13 0
Gamma_12_14 0
Gamma_12_15 0
Gamma_12_16 0
Gamma_12_17 0
Gamma_13_0 0
Gamma_13_1 0
Gamma_13_2 0
Gamma_13_3 0
Gamma_13_4 0
Gamma_13_5 8.3466819331959929e-01
Gamma_13_6 0
Gamma_13_7 0
Gamma_13_8 0
Gamma_13_9 0
Gamma_13_10 0
Gamma_13_11 0
Gamma_13_12 0
Gamma_13_13 9.9036769214701459e-01
Gamma_13_14 0
Gamma_13_15 0
Gamma_13_16 0
Gamma_13_17 0
Gamma_14_0 0
Gamma_14_1 0
Gamma_14_2 0
Gamma_14_3 0
Gamma_14_4 0
Gamma_14_5 0
Gamma_14_6 0
Gamma_14_7 0
Gamma_14_8 0
Gamma_14_9 0
Gamma_14_10 0
Gamma_14_11 0
Gamma_14_12 0
Gamma_14_13 0
Gamma_14_14 1.4458365355617573e+00
Gamma_14_15 0
Gamma_14_16 0
Gamma_14_17 0
Gamma_15_0 0
Gamma_15_1 0
Gamma_15_2 0
Gamma_15_3 0
Gamma_15_4 0
Gamma_15_5 0
Gamma_15_6 0
Gamma_15_7 0
Gamma_15_8 0
Gamma_15_9 0
Gamma_15_10 0
Gamma_15_11 0
Gamma_15_12 0
Gamma_15_13 0
Gamma_15_14 0
Gamma_15_15 8.4572629334143812e-01
Gamma_15_16 0
Gamma_15_17 0
Gamma_16_0 0
Gamma_16_1 0
Gamma_16_2 0
Gamma_16_3 0
Gamma_16_4 0
Gamma_16_5 0
Gamma_16_6 0
Gamma_16_7 0
Gamma_16_8 0
Gamma_16_9 0
Gamma_16_10 0
Gamma_16_11 0
Gamma_16_12 0
Gamma_16_13 0
Gamma_16_14 0
Gamma_16_15 -0.770677859764838
Gamma_16_16 9.5605669128067294e-01
Gamma_16_17 0
Gamma_17_0 0
Gamma_17_1 0
Gamma_17_2 0
Gamma_17_3 0
Gamma_17_4 0
Gamma_17_5 0
Gamma_17_6 0
Gamma_17_7 0
Gamma_17_8 0
Gamma_17_9 0
Gamma_17_10 0
Gamma_17_11 -4.7069247810668896e-01
Gamma_17_12 -6.9195005658039410e-01
Gamma_17_13 0
Gamma_17_14 6.3504560144197375e-01
Gamma_17_15 0
Gamma_17_16 -6.7467200986854114e-01
Gamma_17_17 8.0539338244569636e-01
psi_0 0
psi_1 4
psi_2 4
psi_3 3
psi_4 3
psi_5 1
psi_6 0
psi_7 3
psi_8 2
psi_9 0
psi_10 2
psi_11 1
psi_12 1
psi_13 0
psi_14 1
psi_15 2
psi_16 1
psi_17 0
g_0_0 0
g_0_1 0
g_0_2 0
g_0_3 0
g_0_4 0
g_0_5 0
g_0_6 0
g_0_7 0
g_0_8 0
g_0_9 0
g_0_10 0
g_0_11 0
g_0_12 0
g_0_13 0
g_0_14 0
g_0_15 0
g_0_16 0
g_0_17 0
g_1_0 0
g_1_1 0
g_1_2 0
g_1_3 0
g_1_4 0
g_1_5 0
g_1_6 0
g_1_7 0
g_1_8 0
g_1_9 0
g_1_10 0
g_1_11 0
g_1_12 0
g_1_13 0
g_1_14 0
g_1_15 0
g_1_16 0
g_1_17 0
g_2_0 0
g_2_1 0
g_2_2 0
g_2_3 0
g_2_4 0
g_2_5 0
g_2_6 0
g_2_7 0
g_2_8 0
g_2_9 0
g_2_10 0
g_2_11 0
g_2_12 0
g_2_13 0
g_2_14 0
g_2_15 0
g_2_16 0
g_2_17 0
g_3_0 0
g_3_1 1
g_3_2 1
g_3_3 0
g_3_4 0
g_3_5 0
g_3_6 0
g_3_7 0
g_3_8 0
g_3_9 0
g_3_10 0
g_3_11 0
g_3_12 0
g_3_13 0
g_3_14 0
g_3_15 0
g_3_16 0
g_3_17 0
g_4_0 0
g_4_1 0
g_4_2 0
g_4_3 0
g_4_4 0
g_4_5 0
g_4_6 0
g_4_7 0
g_4_8 0
g_4_9 0
g_4_10 0
g_4_11 0
g_4_12 0
g_4_13 0
g_4_14 0
g_4_15 0
g_4_16 0
g_4_17 0
g_5_0 0
g_5_1 0
g_5_2 0
g_5_3 0
g_5_4 0
g_5_5 0
g_5_6 0
g_5_7 0
g_5_8 0
g_5_9 0
g_5_10 0
g_5_11 0
g_5_12 0
g_5_13 0
g_5_14 0
g_5_15 0
g_5_16 0
g_5_17 0
g_6_0 0
g_6_1 0
g_6_2 0
g_6_3 1
g_6_4 1
g_6_5 1
g_6_6 0
g_6_7 0
g_6_8 0
g_6_9 0
g_6_10 0
g_6_11 0
g_6_12 0
g_6_13 0
g_6_14 0
g_6_15 0
g_6_16 0
g_6_17 0
g_7_0 0
g_7_1 0
g_7_2 0
g_7_3 0
g_7_4 0
g_7_5 0
g_7_6 0
g_7_7 0
g_7_8 0
g_7_9 0
g_7_10 0
g_7_11 0
g_7_12 0
g_7_13 0
g_7_14 0
g_7_15 0
g_7_16 0
g_7_17 0
g_8_0 0
g_8_1 0
g_8_2 0
g_8_3 1
g_8_4 1
g_8_5 0
g_8_6 0
g_8_7 1
g_8_8 0
g_8_9 0
g_8_10 0
g_8_11 0
g_8_12 0
g_8_13 0
g_8_14 0
g_8_15 0
g_8_16 0
g_8_17 0
g_9_0 0
g_9_1 0
g_9_2 0
g_9_3 1
g_9_4 0
g_9_5 0
g_9_6 0
g_9_7 0
g_9_8 0
g_9_9 0
g_9_10 0
g_9_11 0
g_9_12 0
g_9_13 0
g_9_14 0
g_9_15 0
g_9_16 0
g_9_17 0
g_10_0 0
g_10_1 0
g_10_2 0
g_10_3 0
g_10_4 0
g_10_5 0
g_10_6 0
g_10_7 0
g_10_8 0
g_10_9 0
g_10_10 0
g_10_11 0
g_10_12 0
g_10_13 0
g_10_14 0
g_10_15 0
g_10_16 0
g_10_17 0
g_11_0 0
g_11_1 0
g_11_2 0
g_11_3 0
g_11_4 0
g_11_5 0
g_11_6 0
g_11_7 0
g_11_8 0
g_11_9 0
g_11_10 1
g_11_11 0
g_11_12 0
g_11_13 0
g_11_14 0
g_11_15 0
g_11_16 0
g_11_17 0
g_12_0 0
g_12_1 0
g_12_2 0
g_12_3 0
g_12_4 0
g_12_5 0
g_12_6 0
g_12_7 0
g_12_8 1
g_12_9 0
g_12_10 0
g_12_11 0
g_12_12 0
g_12_13 0
g_12_14 0
g_12_15 0
g_12_16 0
g_12_17 0
g_13_0 0
g_13_1 0
g_13_2 0
g_13_3 0
g_13_4 0
g_13_5 1
g_13_6 0
g_13_7 0
g_13_8 0
g_13_9 0
g_13_10 0
g_13_11 0
g_13_12 0
g_13_13 0
g_13_14 0
g_13_15 0
g_13_16 0
g_13_17 0
g_14_0 0
g_14_1 0
g_14_2 0
g_14_3 0
g_14_4 0
g_14_5 0
g_14_6 0
g_14_7 0
g_14_8 0
g_14_9 0
g_14_10 0
g_14_11 0
g_14_12 0
g_14_13 0
g_14_14 0
g_14_15 0
g_14_16 0
g_14_17 0
g_15_0 0
g_15_1 0
g_15_2 0
g_15_3 0
g_15_4 0
g_15_5 0
g_15_6 0
g_15_7 0
g_15_8 0
g_15_9 0
g_15_10 0
g_15_11 0
g_15_12 0
g_15_13 0
g_15_14 0
g_15_15 0
g_15_16 0
g_15_17 0
g_16_0 0
g_16_1 0
g_16_2 0
g_16_3 0
g_16_4 0
g_16_5 0
g_16_6 0
g_16_7 0
g_16_8 0
g_16_9 0
g_16_10 0
g_16_11 0
g_16_12 0
g_16_13 0
g_16_14 0
g_16_15 1
g_16_16 0
g_16_17 0
g_17_0 0
g_17_1 0
g_17_2 0
g_17_3 0
g_17_4 0
g_17_5 0
g_17_6 0
g_17_7 0
g_17_8 0
g_17_9 0
g_17_10 0
g_17_11 1
g_17_12 1
g_17_13 0
g_17_14 1
g_17_15 0
g_17_16 1
g_17_17 0
T_0 3.4925560117875420e-01
T_1 -6.7715803080464809e-01
T_2 -2.4696566586953850e-02
T_3 3.9310848747149407e-01
T_4 1.4334878853827604e-01
T_5 4.9829837553899381e-01
T_6 4.8968085323235755e-01
T_7 3.7731222315242974e-01
T_8 4.6030762567033889e-01
T_9 2.6504689020403305e-01
T_10 6.9467973324279342e-02
T_11 3.5283553353278307e-01
T_12 -4.1421964669183353e-02
T_13 1.9357997197218424e-02
T_14 -7.3737614280034336e-01
T_15 3.3511900410482554e-01
T_16 8.9876134372289584e-02
T_17 4.3284889416032968e-01
